====================================================================================================================
File name: 200_10_50_9.def
Creation date: Mon Nov 24 20:40:30 CET 2014
Website: http://imopse.ii.pwr.edu.pl/
Reference:
Myszkowski P. B., Skowronski M. E., Olech L., Oslizlo K.,
Hybrid Ant Colony Optimization in solving Multi-Skill Resource-Constrained Project Scheduling Problem,
Soft Computing, DOI: DOI 10.1007/s00500-014-1455-x
====================================================================================================================
General characteristics:
Tasks: 200
Resources: 10
Precedence relations: 50
Number of skill types: 9
====================================================================================================================
ResourceID 	 Salary 	 Skills
1	 	 	33.0	 	 Q6: 2 	  Q8: 0 	  Q0: 2 	  Q1: 1 	  Q2: 0 	  Q4: 1
2	 	 	60.1	 	 Q4: 2 	  Q8: 2 	  Q1: 1 	  Q7: 0 	  Q6: 0 	  Q5: 0
3	 	 	80.7	 	 Q3: 0 	  Q0: 2 	  Q8: 0 	  Q5: 0 	  Q2: 2 	  Q1: 2
4	 	 	39.3	 	 Q4: 0 	  Q1: 0 	  Q0: 0 	  Q2: 1 	  Q3: 1 	  Q5: 1
5	 	 	77.2	 	 Q6: 0 	  Q5: 2 	  Q8: 2 	  Q4: 1 	  Q1: 1 	  Q0: 1
6	 	 	89.1	 	 Q3: 1 	  Q5: 1 	  Q2: 1 	  Q1: 2 	  Q0: 1 	  Q6: 0
7	 	 	19.1	 	 Q2: 1 	  Q6: 2 	  Q5: 1 	  Q8: 2 	  Q0: 2 	  Q7: 2
8	 	 	40.4	 	 Q0: 0 	  Q4: 1 	  Q8: 1 	  Q7: 1 	  Q2: 2 	  Q3: 2
9	 	 	12.1	 	 Q8: 2 	  Q2: 2 	  Q1: 2 	  Q7: 0 	  Q5: 1 	  Q6: 2
10	 	 	77.5	 	 Q8: 1 	  Q3: 1 	  Q1: 1 	  Q5: 2 	  Q6: 2 	  Q2: 1
====================================================================================================================
TaskID 	 Duration 	 Skill 	 Predecessor IDs
1	 	 	15	 Q8: 2
2	 	 	35	 Q0: 1
3	 	 	38	 Q7: 0
4	 	 	33	 Q6: 0
5	 	 	24	 Q7: 1
6	 	 	25	 Q7: 1
7	 	 	32	 Q6: 2
8	 	 	35	 Q3: 1
9	 	 	10	 Q3: 2
10	 	 	9	 Q7: 0
11	 	 	30	 Q0: 1
12	 	 	38	 Q3: 2
13	 	 	9	 Q7: 1
14	 	 	14	 Q3: 1	 	13
15	 	 	23	 Q0: 2
16	 	 	19	 Q0: 2
17	 	 	18	 Q5: 0
18	 	 	11	 Q8: 2
19	 	 	36	 Q0: 0
20	 	 	30	 Q3: 2
21	 	 	15	 Q5: 1
22	 	 	28	 Q8: 1	 	18
23	 	 	9	 Q5: 2
24	 	 	21	 Q6: 0
25	 	 	28	 Q8: 1
26	 	 	21	 Q2: 1
27	 	 	35	 Q7: 0	 	26
28	 	 	23	 Q6: 0
29	 	 	19	 Q2: 0
30	 	 	23	 Q5: 0
31	 	 	18	 Q1: 2	 	15
32	 	 	30	 Q5: 2
33	 	 	13	 Q7: 1
34	 	 	31	 Q5: 0
35	 	 	40	 Q1: 0
36	 	 	12	 Q3: 2
37	 	 	38	 Q6: 0
38	 	 	21	 Q2: 0
39	 	 	22	 Q6: 0
40	 	 	16	 Q2: 1
41	 	 	36	 Q3: 1
42	 	 	17	 Q3: 0	 	27
43	 	 	22	 Q8: 1
44	 	 	37	 Q8: 2
45	 	 	27	 Q4: 0
46	 	 	36	 Q2: 1
47	 	 	34	 Q5: 1
48	 	 	37	 Q0: 0
49	 	 	36	 Q5: 2	 	18
50	 	 	15	 Q0: 0
51	 	 	27	 Q2: 0
52	 	 	12	 Q8: 2
53	 	 	34	 Q8: 1	 	50
54	 	 	30	 Q6: 0
55	 	 	15	 Q0: 0
56	 	 	17	 Q3: 2
57	 	 	18	 Q8: 1	 	37
58	 	 	37	 Q2: 0	 	57
59	 	 	18	 Q4: 1
60	 	 	32	 Q1: 2
61	 	 	40	 Q0: 0
62	 	 	14	 Q3: 2
63	 	 	13	 Q0: 0
64	 	 	17	 Q6: 0
65	 	 	37	 Q2: 0
66	 	 	31	 Q7: 0
67	 	 	25	 Q4: 0
68	 	 	11	 Q0: 2
69	 	 	31	 Q7: 1
70	 	 	30	 Q3: 2
71	 	 	20	 Q1: 1
72	 	 	13	 Q3: 0
73	 	 	17	 Q4: 2
74	 	 	28	 Q0: 1
75	 	 	37	 Q3: 2	 	49
76	 	 	14	 Q7: 2
77	 	 	11	 Q1: 0
78	 	 	33	 Q3: 1
79	 	 	20	 Q1: 1
80	 	 	34	 Q1: 1
81	 	 	18	 Q6: 0
82	 	 	10	 Q7: 1
83	 	 	22	 Q0: 2
84	 	 	30	 Q0: 2
85	 	 	31	 Q7: 2
86	 	 	10	 Q6: 2
87	 	 	31	 Q8: 0
88	 	 	22	 Q5: 1
89	 	 	33	 Q7: 0
90	 	 	32	 Q4: 2
91	 	 	25	 Q8: 1
92	 	 	37	 Q0: 0	 	88
93	 	 	28	 Q6: 0
94	 	 	25	 Q3: 2
95	 	 	37	 Q3: 1
96	 	 	40	 Q2: 0
97	 	 	9	 Q7: 2	 	85
98	 	 	29	 Q8: 2	 	39
99	 	 	35	 Q7: 0
100	 	 	16	 Q8: 1
101	 	 	12	 Q2: 1
102	 	 	10	 Q4: 0
103	 	 	13	 Q7: 1
104	 	 	19	 Q2: 1
105	 	 	36	 Q5: 1
106	 	 	23	 Q2: 1
107	 	 	23	 Q2: 1
108	 	 	10	 Q7: 2	 	57
109	 	 	29	 Q2: 2	 	70
110	 	 	27	 Q7: 0
111	 	 	18	 Q1: 2
112	 	 	23	 Q1: 1
113	 	 	16	 Q0: 1
114	 	 	34	 Q2: 2
115	 	 	11	 Q1: 0
116	 	 	28	 Q6: 2
117	 	 	29	 Q7: 1
118	 	 	23	 Q8: 1
119	 	 	20	 Q0: 2
120	 	 	29	 Q7: 1	 	81
121	 	 	40	 Q5: 0
122	 	 	19	 Q4: 2
123	 	 	23	 Q2: 0
124	 	 	33	 Q5: 2	 	74
125	 	 	27	 Q1: 2
126	 	 	29	 Q5: 0	 	110
127	 	 	34	 Q7: 1
128	 	 	40	 Q5: 0	 	86
129	 	 	25	 Q3: 0
130	 	 	33	 Q0: 0
131	 	 	25	 Q3: 2
132	 	 	33	 Q1: 2
133	 	 	12	 Q8: 2
134	 	 	26	 Q2: 0
135	 	 	28	 Q4: 1	 	63
136	 	 	17	 Q3: 2
137	 	 	37	 Q8: 1
138	 	 	31	 Q0: 0	 	28
139	 	 	18	 Q3: 2
140	 	 	32	 Q7: 2
141	 	 	24	 Q8: 2
142	 	 	22	 Q2: 1
143	 	 	21	 Q5: 2
144	 	 	25	 Q2: 0
145	 	 	18	 Q0: 2	 	104
146	 	 	16	 Q5: 0
147	 	 	13	 Q3: 1
148	 	 	24	 Q3: 0
149	 	 	20	 Q8: 2	 	63	76
150	 	 	12	 Q2: 0	 	50
151	 	 	16	 Q8: 0
152	 	 	39	 Q0: 2
153	 	 	21	 Q4: 2
154	 	 	13	 Q2: 1
155	 	 	32	 Q0: 0
156	 	 	9	 Q1: 1
157	 	 	25	 Q8: 0
158	 	 	10	 Q1: 0
159	 	 	17	 Q5: 2
160	 	 	19	 Q5: 0	 	6	82
161	 	 	40	 Q2: 1	 	126
162	 	 	21	 Q6: 0
163	 	 	28	 Q7: 2	 	46
164	 	 	14	 Q0: 2	 	74
165	 	 	33	 Q4: 1
166	 	 	13	 Q0: 2
167	 	 	36	 Q4: 0	 	136	2
168	 	 	26	 Q6: 0
169	 	 	28	 Q8: 1
170	 	 	19	 Q7: 1	 	25
171	 	 	17	 Q3: 0
172	 	 	21	 Q1: 2	 	76
173	 	 	19	 Q0: 2
174	 	 	39	 Q2: 2	 	107
175	 	 	10	 Q8: 1	 	88
176	 	 	23	 Q0: 1	 	7	133
177	 	 	16	 Q3: 1
178	 	 	32	 Q1: 1
179	 	 	34	 Q2: 2	 	139
180	 	 	24	 Q7: 1	 	92
181	 	 	34	 Q5: 2	 	122
182	 	 	38	 Q5: 2
183	 	 	24	 Q8: 2
184	 	 	27	 Q2: 0
185	 	 	23	 Q1: 2
186	 	 	14	 Q1: 0
187	 	 	22	 Q0: 2
188	 	 	28	 Q0: 2	 	98	137
189	 	 	28	 Q4: 2
190	 	 	38	 Q1: 2
191	 	 	19	 Q0: 1	 	23
192	 	 	11	 Q1: 0	 	122	130	109
193	 	 	14	 Q1: 0
194	 	 	19	 Q7: 0	 	164
195	 	 	32	 Q4: 1
196	 	 	14	 Q4: 2	 	107
197	 	 	18	 Q1: 0
198	 	 	26	 Q7: 1	 	105
199	 	 	23	 Q8: 1
200	 	 	19	 Q4: 1
====================================================================================================================
